results/filo/x-long/X-n157-k13.vrp_seed-1.out
16876	1460
