results/filo/x-long/X-n157-k13.vrp_seed-1.vrp.sol
Route #1: 41 110 54 121 21 135 73 106 3 42 32 143
Route #2: 70 139 125 78 146 80 40 108 9 117 1 126
Route #3: 101 27 44 124 130 104 127 145 46 19 116 37
Route #4: 47 5 153 76 136 112 89 81 119 2 57 88
Route #5: 34 138 25 155 22 30 74 79 84 33 48 72
Route #6: 148 13 63 64 141 43 24 156 150 8 149 71
Route #7: 129 91 100 51 90 83 45 77 11 82 113 151
Route #8: 18 107 52 134 10 39 58 29 114 109 60 12
Route #9: 92 137 7 28 66 94 86 132 111 102 96 59
Route #10: 49 14 120 26 128 142 62 97 87 65 103 16
Route #11: 38 122 69 99 93 36 68 20 75 118 147 15
Route #12: 61 56 152 105 95 55 115 6 35 4 67 17
Route #13: 23 31 140 85 144 53 123 98 154 50 133 131
Cost 16876.000000